NAME : mr18
COMMENT : 18-city problem (DISC)
TYPE : TSP
DIMENSION : 18
EDGE_WEIGHT_TYPE : EUC_2D
NODE_COORD_SECTION
1 66 20
2 51 66
3 88 70
4 19 36
5 86 79
6 76 82
7 67 20
8 99 95
9 26 48
10 3 67
11 64 22
12 85 81
13 74 32
14 3 30
15 12 31
16 30 83
17 69 56
18 87 20
EOF
